PROBLEM NAME: eil51_n6
KNAPSACK DATA TYPE: uncorrelated, similar weights
DIMENSION: 6
NUMBER OF ITEMS: 5
CAPACITY OF KNAPSACK: 454609
MIN SPEED: 0.1
MAX SPEED: 1
RENTING RATIO: 6.66
EDGE_WEIGHT_TYPE: CEIL_2D
NODE_COORD_SECTION	(INDEX, X, Y):
1	31	62
2	52	41
3	27	23
4	57	58
5	62	42
6	43	67
ITEMS SECTION	(INDEX, PROFIT, WEIGHT, ASSIGNED NODE NUMBER):
1	906	100007	6
2	811	100011	4
3	724	100026	5
4	428	100017	2
5	416	100009	3
